(set-info :smt-lib-version 2.6)
(set-logic QF_ALIA)
(set-info :notes "Adapted for Array Sum evaluation.
Base file: qlock.induction.22.smt2")
(set-info :source |
Unbounded version of the queue lock algorithm.
|)
(set-info :category "industrial")
(declare-fun x_0 () (Array Int Int))
(declare-fun x_1 () Int)
(declare-fun x_2 () Int)
(declare-fun x_3 () (Array Int Int))
(declare-fun x_4 () (Array Int Int))
(declare-fun x_5 () (Array Int Int))
(declare-fun x_6 () (Array Int Int))
(declare-fun x_7 () (Array Int Int))
(declare-fun x_8 () (Array Int Int))
(declare-fun x_9 () (Array Int Int))
(declare-fun x_10 () (Array Int Int))
(declare-fun x_11 () (Array Int Int))
(declare-fun x_12 () (Array Int Int))
(declare-fun x_13 () (Array Int Int))
(declare-fun x_14 () (Array Int Int))
(declare-fun x_15 () (Array Int Int))
(declare-fun x_16 () (Array Int Int))
(declare-fun x_17 () (Array Int Int))
(declare-fun x_18 () (Array Int Int))
(declare-fun x_19 () (Array Int Int))
(declare-fun x_20 () (Array Int Int))
(declare-fun x_21 () (Array Int Int))
(declare-fun x_22 () (Array Int Int))
(declare-fun x_23 () (Array Int Int))
(declare-fun x_24 () (Array Int Int))
(declare-fun x_25 () Int)
(declare-fun x_26 () Int)
(declare-fun x_27 () (Array Int Int))
(declare-fun x_28 () Int)
(declare-fun x_29 () Bool)
(declare-fun x_30 () Bool)
(declare-fun x_31 () Int)
(declare-fun x_32 () Int)
(declare-fun x_33 () Int)
(declare-fun x_34 () Int)
(declare-fun x_35 () Int)
(declare-fun x_36 () Int)
(declare-fun x_37 () Int)
(declare-fun x_38 () Int)
(declare-fun x_39 () Int)
(declare-fun x_40 () Int)
(declare-fun x_41 () Int)
(declare-fun x_42 () Int)
(declare-fun x_43 () (Array Int Int))
(declare-fun x_44 () Int)
(declare-fun x_45 () Bool)
(declare-fun x_46 () Int)
(declare-fun x_47 () Int)
(declare-fun x_48 () Int)
(declare-fun x_49 () Int)
(declare-fun x_50 () Int)
(declare-fun x_51 () Int)
(declare-fun x_52 () Int)
(declare-fun x_53 () Int)
(declare-fun x_54 () Int)
(declare-fun x_55 () Int)
(declare-fun x_56 () (Array Int Int))
(declare-fun x_57 () Int)
(declare-fun x_58 () Bool)
(declare-fun x_59 () Int)
(declare-fun x_60 () Int)
(declare-fun x_61 () Int)
(declare-fun x_62 () Int)
(declare-fun x_63 () Int)
(declare-fun x_64 () Int)
(declare-fun x_65 () Int)
(declare-fun x_66 () Int)
(declare-fun x_67 () Int)
(declare-fun x_68 () Int)
(declare-fun x_69 () (Array Int Int))
(declare-fun x_70 () Int)
(declare-fun x_71 () Bool)
(declare-fun x_72 () Int)
(declare-fun x_73 () Int)
(declare-fun x_74 () Int)
(declare-fun x_75 () Int)
(declare-fun x_76 () Int)
(declare-fun x_77 () Int)
(declare-fun x_78 () Int)
(declare-fun x_79 () Int)
(declare-fun x_80 () Int)
(declare-fun x_81 () Int)
(declare-fun x_82 () (Array Int Int))
(declare-fun x_83 () Int)
(declare-fun x_84 () Bool)
(declare-fun x_85 () Int)
(declare-fun x_86 () Int)
(declare-fun x_87 () Int)
(declare-fun x_88 () Int)
(declare-fun x_89 () Int)
(declare-fun x_90 () Int)
(declare-fun x_91 () Int)
(declare-fun x_92 () Int)
(declare-fun x_93 () Int)
(declare-fun x_94 () Int)
(declare-fun x_95 () (Array Int Int))
(declare-fun x_96 () Int)
(declare-fun x_97 () Bool)
(declare-fun x_98 () Int)
(declare-fun x_99 () Int)
(declare-fun x_100 () Int)
(declare-fun x_101 () Int)
(declare-fun x_102 () Int)
(declare-fun x_103 () Int)
(declare-fun x_104 () Int)
(declare-fun x_105 () Int)
(declare-fun x_106 () Int)
(declare-fun x_107 () Int)
(declare-fun x_108 () (Array Int Int))
(declare-fun x_109 () Int)
(declare-fun x_110 () Bool)
(declare-fun x_111 () Int)
(declare-fun x_112 () Int)
(declare-fun x_113 () Int)
(declare-fun x_114 () Int)
(declare-fun x_115 () Int)
(declare-fun x_116 () Int)
(declare-fun x_117 () Int)
(declare-fun x_118 () Int)
(declare-fun x_119 () Int)
(declare-fun x_120 () Int)
(declare-fun x_121 () (Array Int Int))
(declare-fun x_122 () Int)
(declare-fun x_123 () Bool)
(declare-fun x_124 () Int)
(declare-fun x_125 () Int)
(declare-fun x_126 () Int)
(declare-fun x_127 () Int)
(declare-fun x_128 () Int)
(declare-fun x_129 () Int)
(declare-fun x_130 () Int)
(declare-fun x_131 () Int)
(declare-fun x_132 () Int)
(declare-fun x_133 () Int)
(declare-fun x_134 () (Array Int Int))
(declare-fun x_135 () Int)
(declare-fun x_136 () Bool)
(declare-fun x_137 () Int)
(declare-fun x_138 () Int)
(declare-fun x_139 () Int)
(declare-fun x_140 () Int)
(declare-fun x_141 () Int)
(declare-fun x_142 () Int)
(declare-fun x_143 () Int)
(declare-fun x_144 () Int)
(declare-fun x_145 () Int)
(declare-fun x_146 () Int)
(declare-fun x_147 () (Array Int Int))
(declare-fun x_148 () Int)
(declare-fun x_149 () Bool)
(declare-fun x_150 () Int)
(declare-fun x_151 () Int)
(declare-fun x_152 () Int)
(declare-fun x_153 () Int)
(declare-fun x_154 () Int)
(declare-fun x_155 () Int)
(declare-fun x_156 () Int)
(declare-fun x_157 () Int)
(declare-fun x_158 () Int)
(declare-fun x_159 () Int)
(declare-fun x_160 () (Array Int Int))
(declare-fun x_161 () Int)
(declare-fun x_162 () Bool)
(declare-fun x_163 () Int)
(declare-fun x_164 () Int)
(declare-fun x_165 () Int)
(declare-fun x_166 () Int)
(declare-fun x_167 () Int)
(declare-fun x_168 () Int)
(declare-fun x_169 () Int)
(declare-fun x_170 () Int)
(declare-fun x_171 () Int)
(declare-fun x_172 () Int)
(declare-fun x_173 () (Array Int Int))
(declare-fun x_174 () Int)
(declare-fun x_175 () Bool)
(declare-fun x_176 () Int)
(declare-fun x_177 () Int)
(declare-fun x_178 () Int)
(declare-fun x_179 () Int)
(declare-fun x_180 () Int)
(declare-fun x_181 () Int)
(declare-fun x_182 () Int)
(declare-fun x_183 () Int)
(declare-fun x_184 () Int)
(declare-fun x_185 () Int)
(declare-fun x_186 () (Array Int Int))
(declare-fun x_187 () Int)
(declare-fun x_188 () Bool)
(declare-fun x_189 () Int)
(declare-fun x_190 () Int)
(declare-fun x_191 () Int)
(declare-fun x_192 () Int)
(declare-fun x_193 () Int)
(declare-fun x_194 () Int)
(declare-fun x_195 () Int)
(declare-fun x_196 () Int)
(declare-fun x_197 () Int)
(declare-fun x_198 () Int)
(declare-fun x_199 () (Array Int Int))
(declare-fun x_200 () Int)
(declare-fun x_201 () Bool)
(declare-fun x_202 () Int)
(declare-fun x_203 () Int)
(declare-fun x_204 () Int)
(declare-fun x_205 () Int)
(declare-fun x_206 () Int)
(declare-fun x_207 () Int)
(declare-fun x_208 () Int)
(declare-fun x_209 () Int)
(declare-fun x_210 () Int)
(declare-fun x_211 () Int)
(declare-fun x_212 () (Array Int Int))
(declare-fun x_213 () Int)
(declare-fun x_214 () Bool)
(declare-fun x_215 () Int)
(declare-fun x_216 () Int)
(declare-fun x_217 () Int)
(declare-fun x_218 () Int)
(declare-fun x_219 () Int)
(declare-fun x_220 () Int)
(declare-fun x_221 () Int)
(declare-fun x_222 () Int)
(declare-fun x_223 () Int)
(declare-fun x_224 () Int)
(declare-fun x_225 () (Array Int Int))
(declare-fun x_226 () Int)
(declare-fun x_227 () Bool)
(declare-fun x_228 () Int)
(declare-fun x_229 () Int)
(declare-fun x_230 () Int)
(declare-fun x_231 () Int)
(declare-fun x_232 () Int)
(declare-fun x_233 () Int)
(declare-fun x_234 () Int)
(declare-fun x_235 () Int)
(declare-fun x_236 () Int)
(declare-fun x_237 () Int)
(declare-fun x_238 () (Array Int Int))
(declare-fun x_239 () Int)
(declare-fun x_240 () Bool)
(declare-fun x_241 () Int)
(declare-fun x_242 () Int)
(declare-fun x_243 () Int)
(declare-fun x_244 () Int)
(declare-fun x_245 () Int)
(declare-fun x_246 () Int)
(declare-fun x_247 () Int)
(declare-fun x_248 () Int)
(declare-fun x_249 () Int)
(declare-fun x_250 () Int)
(declare-fun x_251 () (Array Int Int))
(declare-fun x_252 () Int)
(declare-fun x_253 () Bool)
(declare-fun x_254 () Int)
(declare-fun x_255 () Int)
(declare-fun x_256 () Int)
(declare-fun x_257 () Int)
(declare-fun x_258 () Int)
(declare-fun x_259 () Int)
(declare-fun x_260 () Int)
(declare-fun x_261 () Int)
(declare-fun x_262 () Int)
(declare-fun x_263 () Int)
(declare-fun x_264 () (Array Int Int))
(declare-fun x_265 () Int)
(declare-fun x_266 () Bool)
(declare-fun x_267 () Int)
(declare-fun x_268 () Int)
(declare-fun x_269 () Int)
(declare-fun x_270 () Int)
(declare-fun x_271 () Int)
(declare-fun x_272 () Int)
(declare-fun x_273 () Int)
(declare-fun x_274 () Int)
(declare-fun x_275 () Int)
(declare-fun x_276 () Int)
(declare-fun x_277 () (Array Int Int))
(declare-fun x_278 () Int)
(declare-fun x_279 () Bool)
(declare-fun x_280 () Int)
(declare-fun x_281 () Int)
(declare-fun x_282 () Int)
(declare-fun x_283 () Int)
(declare-fun x_284 () Int)
(declare-fun x_285 () Int)
(declare-fun x_286 () Int)
(declare-fun x_287 () Int)
(declare-fun x_288 () Int)
(declare-fun x_289 () Int)
(declare-fun x_290 () (Array Int Int))
(declare-fun x_291 () Int)
(declare-fun x_292 () Bool)
(declare-fun x_293 () Int)
(declare-fun x_294 () Int)
(declare-fun x_295 () Int)
(declare-fun x_296 () Int)
(declare-fun x_297 () Int)
(declare-fun x_298 () Int)
(declare-fun x_299 () Int)
(declare-fun x_300 () Int)
(declare-fun x_301 () Int)
(declare-fun x_302 () Int)
(declare-fun x_303 () (Array Int Int))
(declare-fun x_304 () Int)
(declare-fun x_305 () Bool)
(declare-fun x_306 () Int)
(declare-fun x_307 () Int)
(declare-fun x_308 () Int)
(declare-fun x_309 () Int)
(declare-fun x_310 () Int)
(declare-fun x_311 () (Array Int Int))
(declare-fun x_312 () Int)
(declare-fun x_313 () Int)
(declare-fun x_314 () Int)
(declare-fun x_315 () Int)
(declare-fun x_316 () Int)
(declare-fun x_317 () Int)
(declare-fun x_318 () Int)
(declare-fun x_319 () Int)
(declare-fun x_320 () Int)
(declare-fun x_321 () Int)
(declare-fun x_322 () Int)
(declare-fun x_323 () Int)
(declare-fun x_324 () Int)
(declare-fun x_325 () Int)
(declare-fun x_326 () Int)
(declare-fun x_327 () Int)
(declare-fun x_328 () Int)
(declare-fun x_329 () Int)
(declare-fun x_330 () Int)
(declare-fun x_331 () Int)
(declare-fun x_332 () Int)
(declare-fun x_333 () Int)
(declare-fun x_334 () Int)
(declare-fun x_335 () Int)
(declare-fun x_336 () Int)
(declare-fun x_337 () Int)
(declare-fun x_338 () Int)
(declare-fun x_339 () Int)
(declare-fun x_340 () Int)
(declare-fun x_341 () Int)
(declare-fun x_342 () Int)
(declare-fun x_343 () Int)
(declare-fun x_344 () Int)
(declare-fun x_345 () Int)
(declare-fun x_346 () Int)
(declare-fun x_347 () Int)
(declare-fun x_348 () Int)
(declare-fun x_349 () Int)
(declare-fun x_350 () Int)
(declare-fun x_351 () Int)
(declare-fun x_352 () Int)
(declare-fun x_353 () Int)
(declare-fun x_354 () Int)
(declare-fun x_355 () Int)
(declare-fun x_356 () Int)
(declare-fun x_357 () Int)
(declare-fun x_358 () Int)
(declare-fun x_359 () Int)
(declare-fun x_360 () Int)
(declare-fun x_361 () Int)
(declare-fun x_362 () Int)
(declare-fun x_363 () Int)
(declare-fun x_364 () Int)
(declare-fun x_365 () Int)
(declare-fun x_366 () Int)
(declare-fun x_367 () Int)
(declare-fun x_368 () Int)
(declare-fun x_369 () Int)
(declare-fun x_370 () Int)
(declare-fun x_371 () Int)
(declare-fun x_372 () Int)
(declare-fun x_373 () Int)
(declare-fun x_374 () Int)
(declare-fun x_375 () Int)
(declare-fun x_376 () Int)
(declare-fun x_377 () Int)
(declare-fun x_378 () Int)
(declare-fun x_379 () Int)
(declare-fun x_380 () Int)
(declare-fun x_381 () Int)
(declare-fun x_382 () Int)
(declare-fun x_383 () Int)
(declare-fun x_384 () Int)
(declare-fun x_385 () Int)
(declare-fun x_386 () Int)
(declare-fun x_387 () Int)
(declare-fun x_388 () Int)
(declare-fun x_389 () Int)
(declare-fun x_390 () Int)
(declare-fun x_391 () Int)
(declare-fun x_392 () Int)
(declare-fun x_393 () Int)
(declare-fun x_394 () Int)
(declare-fun x_395 () Int)
(declare-fun x_396 () Int)
(declare-fun x_397 () Int)
(declare-fun x_398 () Int)
(declare-fun x_399 () Int)
(declare-fun x_400 () Int)
(declare-fun x_401 () Int)
(declare-fun x_402 () Int)
(declare-fun x_403 () Int)
(declare-fun x_404 () Int)
(declare-fun x_405 () Int)
(declare-fun x_406 () Int)
(declare-fun x_407 () Int)
(declare-fun x_408 () Int)
(declare-fun x_409 () Int)
(declare-fun x_410 () Int)
(declare-fun x_411 () Int)
(declare-fun x_412 () Int)
(declare-fun x_413 () Int)
(declare-fun x_414 () Int)
(declare-fun x_415 () Int)
(declare-fun x_416 () Int)
(declare-fun x_417 () Int)
(declare-fun x_418 () Int)
(declare-fun x_419 () Int)
(declare-fun x_420 () Int)
(declare-fun x_421 () Int)
(declare-fun x_422 () Int)
(declare-fun x_423 () Int)
(declare-fun x_424 () Int)
(declare-fun x_425 () Int)
(declare-fun x_426 () Int)
(declare-fun x_427 () Int)
(declare-fun x_428 () Int)
(declare-fun x_429 () Int)
(declare-fun x_430 () Int)
(declare-fun x_431 () Int)
(declare-fun x_432 () Int)
(declare-fun x_433 () Int)
(declare-fun x_434 () Int)
(declare-fun x_435 () Int)
(declare-fun x_436 () Int)
(declare-fun x_437 () Int)
(declare-fun x_438 () Int)
(declare-fun x_439 () Int)
(declare-fun x_440 () Int)
(declare-fun x_441 () Int)
(declare-fun x_442 () Int)
(declare-fun x_443 () Int)
(declare-fun x_444 () Int)
(declare-fun x_445 () Int)
(declare-fun x_446 () Int)
(declare-fun x_447 () Int)
(declare-fun x_448 () Int)
(declare-fun x_449 () Int)
(assert (let ((?v_108 (= x_27 x_24)) (?v_105 (= x_28 x_25)) (?v_106 (= x_29 x_30)) (?v_109 (= x_31 x_32)) (?v_107 (not (<= x_32 x_25))) (?v_103 (= x_43 x_27)) (?v_100 (= x_44 x_28)) (?v_101 (= x_45 x_29)) (?v_104 (= x_46 x_31)) (?v_102 (not (<= x_31 x_28))) (?v_98 (= x_56 x_43)) (?v_95 (= x_57 x_44)) (?v_96 (= x_58 x_45)) (?v_99 (= x_59 x_46)) (?v_97 (not (<= x_46 x_44))) (?v_93 (= x_69 x_56)) (?v_90 (= x_70 x_57)) (?v_91 (= x_71 x_58)) (?v_94 (= x_72 x_59)) (?v_92 (not (<= x_59 x_57))) (?v_88 (= x_82 x_69)) (?v_85 (= x_83 x_70)) (?v_86 (= x_84 x_71)) (?v_89 (= x_85 x_72)) (?v_87 (not (<= x_72 x_70))) (?v_83 (= x_95 x_82)) (?v_80 (= x_96 x_83)) (?v_81 (= x_97 x_84)) (?v_84 (= x_98 x_85)) (?v_82 (not (<= x_85 x_83))) (?v_78 (= x_108 x_95)) (?v_75 (= x_109 x_96)) (?v_76 (= x_110 x_97)) (?v_79 (= x_111 x_98)) (?v_77 (not (<= x_98 x_96))) (?v_73 (= x_121 x_108)) (?v_70 (= x_122 x_109)) (?v_71 (= x_123 x_110)) (?v_74 (= x_124 x_111)) (?v_72 (not (<= x_111 x_109))) (?v_68 (= x_134 x_121)) (?v_65 (= x_135 x_122)) (?v_66 (= x_136 x_123)) (?v_69 (= x_137 x_124)) (?v_67 (not (<= x_124 x_122))) (?v_63 (= x_147 x_134)) (?v_60 (= x_148 x_135)) (?v_61 (= x_149 x_136)) (?v_64 (= x_150 x_137)) (?v_62 (not (<= x_137 x_135))) (?v_58 (= x_160 x_147)) (?v_55 (= x_161 x_148)) (?v_56 (= x_162 x_149)) (?v_59 (= x_163 x_150)) (?v_57 (not (<= x_150 x_148))) (?v_53 (= x_173 x_160)) (?v_50 (= x_174 x_161)) (?v_51 (= x_175 x_162)) (?v_54 (= x_176 x_163)) (?v_52 (not (<= x_163 x_161))) (?v_48 (= x_186 x_173)) (?v_45 (= x_187 x_174)) (?v_46 (= x_188 x_175)) (?v_49 (= x_189 x_176)) (?v_47 (not (<= x_176 x_174))) (?v_43 (= x_199 x_186)) (?v_40 (= x_200 x_187)) (?v_41 (= x_201 x_188)) (?v_44 (= x_202 x_189)) (?v_42 (not (<= x_189 x_187))) (?v_38 (= x_212 x_199)) (?v_35 (= x_213 x_200)) (?v_36 (= x_214 x_201)) (?v_39 (= x_215 x_202)) (?v_37 (not (<= x_202 x_200))) (?v_33 (= x_225 x_212)) (?v_30 (= x_226 x_213)) (?v_31 (= x_227 x_214)) (?v_34 (= x_228 x_215)) (?v_32 (not (<= x_215 x_213))) (?v_28 (= x_238 x_225)) (?v_25 (= x_239 x_226)) (?v_26 (= x_240 x_227)) (?v_29 (= x_241 x_228)) (?v_27 (not (<= x_228 x_226))) (?v_23 (= x_251 x_238)) (?v_20 (= x_252 x_239)) (?v_21 (= x_253 x_240)) (?v_24 (= x_254 x_241)) (?v_22 (not (<= x_241 x_239))) (?v_18 (= x_264 x_251)) (?v_15 (= x_265 x_252)) (?v_16 (= x_266 x_253)) (?v_19 (= x_267 x_254)) (?v_17 (not (<= x_254 x_252))) (?v_13 (= x_277 x_264)) (?v_10 (= x_278 x_265)) (?v_11 (= x_279 x_266)) (?v_14 (= x_280 x_267)) (?v_12 (not (<= x_267 x_265))) (?v_8 (= x_290 x_277)) (?v_5 (= x_291 x_278)) (?v_6 (= x_292 x_279)) (?v_9 (= x_293 x_280)) (?v_7 (not (<= x_280 x_278))) (?v_3 (= x_303 x_290)) (?v_0 (= x_304 x_291)) (?v_1 (= x_305 x_292)) (?v_4 (= x_306 x_293)) (?v_2 (not (<= x_293 x_291)))) (and (and (and (and (and (and (and (and (and (and (and (and (and (and (and (and (and (and (and (and (and (and (and (and (and (and (and (and (and (and (and (and (and (and (and (and (and (and (and (and (and (and (and (and (and (and (and (and (and (and (and (and (and (and (and (and (and (and (and (and (and (and (and (and (and (and (and (and (and (and (and (and (and (and (and (and (and (and (and (and (and (and (and (and (and (and (and (and (and (and (and (and (and (and (and (and (and (and (and (and (and (and (and (and (and (and (and (and (and (and (and (and (and (and (and (and (and (and (and (and (and (and (and (and (and (and (and (and (and (and (and (and (and (and (and (and (and (and (and (and (and (and (and (and (and (and (and (and (and (and (and (and (and (and (and (and (and (and (and (and (and (and (and (and (and (and (and (and (and (and (and (and (and (and (and (and (and (and (and (and (and (and (and (and (and (and (and (and (and (and (and (and (and (and (and (and (and (and (and (and (and (and (and (and (and (and (and (and (and (and (and (and (and (and (and (and (and (and (and (and (and (and (and (and (not (= x_2 x_1)) (= x_316 (select x_23 x_1))) (= x_317 (select x_23 x_2))) (or (not (= x_316 3)) (not (= x_317 3)))) (= x_318 (select x_22 x_1))) (= x_319 (select x_22 x_2))) (or (not (= x_318 3)) (not (= x_319 3)))) (= x_320 (select x_21 x_1))) (= x_321 (select x_21 x_2))) (or (not (= x_320 3)) (not (= x_321 3)))) (= x_322 (select x_20 x_1))) (= x_323 (select x_20 x_2))) (or (not (= x_322 3)) (not (= x_323 3)))) (= x_324 (select x_19 x_1))) (= x_325 (select x_19 x_2))) (or (not (= x_324 3)) (not (= x_325 3)))) (= x_326 (select x_18 x_1))) (= x_327 (select x_18 x_2))) (or (not (= x_326 3)) (not (= x_327 3)))) (= x_328 (select x_17 x_1))) (= x_329 (select x_17 x_2))) (or (not (= x_328 3)) (not (= x_329 3)))) (= x_330 (select x_16 x_1))) (= x_331 (select x_16 x_2))) (or (not (= x_330 3)) (not (= x_331 3)))) (= x_332 (select x_15 x_1))) (= x_333 (select x_15 x_2))) (or (not (= x_332 3)) (not (= x_333 3)))) (= x_334 (select x_14 x_1))) (= x_335 (select x_14 x_2))) (or (not (= x_334 3)) (not (= x_335 3)))) (= x_336 (select x_13 x_1))) (= x_337 (select x_13 x_2))) (or (not (= x_336 3)) (not (= x_337 3)))) (= x_338 (select x_12 x_1))) (= x_339 (select x_12 x_2))) (or (not (= x_338 3)) (not (= x_339 3)))) (= x_340 (select x_11 x_1))) (= x_341 (select x_11 x_2))) (or (not (= x_340 3)) (not (= x_341 3)))) (= x_342 (select x_10 x_1))) (= x_343 (select x_10 x_2))) (or (not (= x_342 3)) (not (= x_343 3)))) (= x_344 (select x_9 x_1))) (= x_345 (select x_9 x_2))) (or (not (= x_344 3)) (not (= x_345 3)))) (= x_346 (select x_8 x_1))) (= x_347 (select x_8 x_2))) (or (not (= x_346 3)) (not (= x_347 3)))) (= x_348 (select x_7 x_1))) (= x_349 (select x_7 x_2))) (or (not (= x_348 3)) (not (= x_349 3)))) (= x_350 (select x_6 x_1))) (= x_351 (select x_6 x_2))) (or (not (= x_350 3)) (not (= x_351 3)))) (= x_352 (select x_5 x_1))) (= x_353 (select x_5 x_2))) (or (not (= x_352 3)) (not (= x_353 3)))) (= x_354 (select x_4 x_1))) (= x_355 (select x_4 x_2))) (or (not (= x_354 3)) (not (= x_355 3)))) (= x_356 (select x_3 x_1))) (= x_357 (select x_3 x_2))) (or (not (= x_356 3)) (not (= x_357 3)))) (= x_358 (select x_0 x_1))) (= x_359 (select x_0 x_2))) (or (not (= x_358 3)) (not (= x_359 3)))) (= x_360 (select x_24 x_25))) (= x_26 x_360)) (= x_361 (select x_27 x_28))) (= x_42 x_361)) (= x_362 (select x_43 x_44))) (= x_55 x_362)) (= x_363 (select x_56 x_57))) (= x_68 x_363)) (= x_364 (select x_69 x_70))) (= x_81 x_364)) (= x_365 (select x_82 x_83))) (= x_94 x_365)) (= x_366 (select x_95 x_96))) (= x_107 x_366)) (= x_367 (select x_108 x_109))) (= x_120 x_367)) (= x_368 (select x_121 x_122))) (= x_133 x_368)) (= x_369 (select x_134 x_135))) (= x_146 x_369)) (= x_370 (select x_147 x_148))) (= x_159 x_370)) (= x_371 (select x_160 x_161))) (= x_172 x_371)) (= x_372 (select x_173 x_174))) (= x_185 x_372)) (= x_373 (select x_186 x_187))) (= x_198 x_373)) (= x_374 (select x_199 x_200))) (= x_211 x_374)) (= x_375 (select x_212 x_213))) (= x_224 x_375)) (= x_376 (select x_225 x_226))) (= x_237 x_376)) (= x_377 (select x_238 x_239))) (= x_250 x_377)) (= x_378 (select x_251 x_252))) (= x_263 x_378)) (= x_379 (select x_264 x_265))) (= x_276 x_379)) (= x_380 (select x_277 x_278))) (= x_289 x_380)) (= x_381 (select x_290 x_291))) (= x_302 x_381)) (= x_307 (+ x_294 1))) (= x_382 (select x_23 x_309))) (= x_383 (select x_23 x_312))) (= x_384 (select x_23 x_314))) (or (or (or (and (and (and (and (and (and (and (= x_308 0) (= x_306 (+ x_293 1))) ?v_0) ?v_1) (= x_310 x_309)) (= x_382 1)) (= x_311 (store x_23 x_309 2))) (= x_303 (store x_290 x_293 x_309))) (and (and (and (and (and (and (and (and (and (= x_308 1) ?v_2) ?v_0) ?v_1) ?v_3) ?v_4) (= x_313 x_312)) (= x_383 2)) (= x_302 x_312)) (= x_311 (store x_23 x_312 3)))) (and (and (and (and (and (and (and (and (and (= x_308 2) ?v_2) (= x_304 (+ x_291 1))) ?v_1) ?v_3) ?v_4) (= x_315 x_314)) (= x_384 3)) (or (not (<= x_294 12)) (= x_302 x_314))) (= x_311 (store x_23 x_314 1)))) (and (and (and (and (and (= x_308 3) ?v_3) ?v_0) ?v_1) (= x_311 x_23)) ?v_4))) (= x_294 (+ x_281 1))) (= x_385 (select x_22 x_296))) (= x_386 (select x_22 x_298))) (= x_387 (select x_22 x_300))) (or (or (or (and (and (and (and (and (and (and (= x_295 0) (= x_293 (+ x_280 1))) ?v_5) ?v_6) (= x_297 x_296)) (= x_385 1)) (= x_23 (store x_22 x_296 2))) (= x_290 (store x_277 x_280 x_296))) (and (and (and (and (and (and (and (and (and (= x_295 1) ?v_7) ?v_5) ?v_6) ?v_8) ?v_9) (= x_299 x_298)) (= x_386 2)) (= x_289 x_298)) (= x_23 (store x_22 x_298 3)))) (and (and (and (and (and (and (and (and (and (= x_295 2) ?v_7) (= x_291 (+ x_278 1))) ?v_6) ?v_8) ?v_9) (= x_301 x_300)) (= x_387 3)) (or (not (<= x_281 12)) (= x_289 x_300))) (= x_23 (store x_22 x_300 1)))) (and (and (and (and (and (= x_295 3) ?v_8) ?v_5) ?v_6) (= x_23 x_22)) ?v_9))) (= x_281 (+ x_268 1))) (= x_388 (select x_21 x_283))) (= x_389 (select x_21 x_285))) (= x_390 (select x_21 x_287))) (or (or (or (and (and (and (and (and (and (and (= x_282 0) (= x_280 (+ x_267 1))) ?v_10) ?v_11) (= x_284 x_283)) (= x_388 1)) (= x_22 (store x_21 x_283 2))) (= x_277 (store x_264 x_267 x_283))) (and (and (and (and (and (and (and (and (and (= x_282 1) ?v_12) ?v_10) ?v_11) ?v_13) ?v_14) (= x_286 x_285)) (= x_389 2)) (= x_276 x_285)) (= x_22 (store x_21 x_285 3)))) (and (and (and (and (and (and (and (and (and (= x_282 2) ?v_12) (= x_278 (+ x_265 1))) ?v_11) ?v_13) ?v_14) (= x_288 x_287)) (= x_390 3)) (or (not (<= x_268 12)) (= x_276 x_287))) (= x_22 (store x_21 x_287 1)))) (and (and (and (and (and (= x_282 3) ?v_13) ?v_10) ?v_11) (= x_22 x_21)) ?v_14))) (= x_268 (+ x_255 1))) (= x_391 (select x_20 x_270))) (= x_392 (select x_20 x_272))) (= x_393 (select x_20 x_274))) (or (or (or (and (and (and (and (and (and (and (= x_269 0) (= x_267 (+ x_254 1))) ?v_15) ?v_16) (= x_271 x_270)) (= x_391 1)) (= x_21 (store x_20 x_270 2))) (= x_264 (store x_251 x_254 x_270))) (and (and (and (and (and (and (and (and (and (= x_269 1) ?v_17) ?v_15) ?v_16) ?v_18) ?v_19) (= x_273 x_272)) (= x_392 2)) (= x_263 x_272)) (= x_21 (store x_20 x_272 3)))) (and (and (and (and (and (and (and (and (and (= x_269 2) ?v_17) (= x_265 (+ x_252 1))) ?v_16) ?v_18) ?v_19) (= x_275 x_274)) (= x_393 3)) (or (not (<= x_255 12)) (= x_263 x_274))) (= x_21 (store x_20 x_274 1)))) (and (and (and (and (and (= x_269 3) ?v_18) ?v_15) ?v_16) (= x_21 x_20)) ?v_19))) (= x_255 (+ x_242 1))) (= x_394 (select x_19 x_257))) (= x_395 (select x_19 x_259))) (= x_396 (select x_19 x_261))) (or (or (or (and (and (and (and (and (and (and (= x_256 0) (= x_254 (+ x_241 1))) ?v_20) ?v_21) (= x_258 x_257)) (= x_394 1)) (= x_20 (store x_19 x_257 2))) (= x_251 (store x_238 x_241 x_257))) (and (and (and (and (and (and (and (and (and (= x_256 1) ?v_22) ?v_20) ?v_21) ?v_23) ?v_24) (= x_260 x_259)) (= x_395 2)) (= x_250 x_259)) (= x_20 (store x_19 x_259 3)))) (and (and (and (and (and (and (and (and (and (= x_256 2) ?v_22) (= x_252 (+ x_239 1))) ?v_21) ?v_23) ?v_24) (= x_262 x_261)) (= x_396 3)) (or (not (<= x_242 12)) (= x_250 x_261))) (= x_20 (store x_19 x_261 1)))) (and (and (and (and (and (= x_256 3) ?v_23) ?v_20) ?v_21) (= x_20 x_19)) ?v_24))) (= x_242 (+ x_229 1))) (= x_397 (select x_18 x_244))) (= x_398 (select x_18 x_246))) (= x_399 (select x_18 x_248))) (or (or (or (and (and (and (and (and (and (and (= x_243 0) (= x_241 (+ x_228 1))) ?v_25) ?v_26) (= x_245 x_244)) (= x_397 1)) (= x_19 (store x_18 x_244 2))) (= x_238 (store x_225 x_228 x_244))) (and (and (and (and (and (and (and (and (and (= x_243 1) ?v_27) ?v_25) ?v_26) ?v_28) ?v_29) (= x_247 x_246)) (= x_398 2)) (= x_237 x_246)) (= x_19 (store x_18 x_246 3)))) (and (and (and (and (and (and (and (and (and (= x_243 2) ?v_27) (= x_239 (+ x_226 1))) ?v_26) ?v_28) ?v_29) (= x_249 x_248)) (= x_399 3)) (or (not (<= x_229 12)) (= x_237 x_248))) (= x_19 (store x_18 x_248 1)))) (and (and (and (and (and (= x_243 3) ?v_28) ?v_25) ?v_26) (= x_19 x_18)) ?v_29))) (= x_229 (+ x_216 1))) (= x_400 (select x_17 x_231))) (= x_401 (select x_17 x_233))) (= x_402 (select x_17 x_235))) (or (or (or (and (and (and (and (and (and (and (= x_230 0) (= x_228 (+ x_215 1))) ?v_30) ?v_31) (= x_232 x_231)) (= x_400 1)) (= x_18 (store x_17 x_231 2))) (= x_225 (store x_212 x_215 x_231))) (and (and (and (and (and (and (and (and (and (= x_230 1) ?v_32) ?v_30) ?v_31) ?v_33) ?v_34) (= x_234 x_233)) (= x_401 2)) (= x_224 x_233)) (= x_18 (store x_17 x_233 3)))) (and (and (and (and (and (and (and (and (and (= x_230 2) ?v_32) (= x_226 (+ x_213 1))) ?v_31) ?v_33) ?v_34) (= x_236 x_235)) (= x_402 3)) (or (not (<= x_216 12)) (= x_224 x_235))) (= x_18 (store x_17 x_235 1)))) (and (and (and (and (and (= x_230 3) ?v_33) ?v_30) ?v_31) (= x_18 x_17)) ?v_34))) (= x_216 (+ x_203 1))) (= x_403 (select x_16 x_218))) (= x_404 (select x_16 x_220))) (= x_405 (select x_16 x_222))) (or (or (or (and (and (and (and (and (and (and (= x_217 0) (= x_215 (+ x_202 1))) ?v_35) ?v_36) (= x_219 x_218)) (= x_403 1)) (= x_17 (store x_16 x_218 2))) (= x_212 (store x_199 x_202 x_218))) (and (and (and (and (and (and (and (and (and (= x_217 1) ?v_37) ?v_35) ?v_36) ?v_38) ?v_39) (= x_221 x_220)) (= x_404 2)) (= x_211 x_220)) (= x_17 (store x_16 x_220 3)))) (and (and (and (and (and (and (and (and (and (= x_217 2) ?v_37) (= x_213 (+ x_200 1))) ?v_36) ?v_38) ?v_39) (= x_223 x_222)) (= x_405 3)) (or (not (<= x_203 12)) (= x_211 x_222))) (= x_17 (store x_16 x_222 1)))) (and (and (and (and (and (= x_217 3) ?v_38) ?v_35) ?v_36) (= x_17 x_16)) ?v_39))) (= x_203 (+ x_190 1))) (= x_406 (select x_15 x_205))) (= x_407 (select x_15 x_207))) (= x_408 (select x_15 x_209))) (or (or (or (and (and (and (and (and (and (and (= x_204 0) (= x_202 (+ x_189 1))) ?v_40) ?v_41) (= x_206 x_205)) (= x_406 1)) (= x_16 (store x_15 x_205 2))) (= x_199 (store x_186 x_189 x_205))) (and (and (and (and (and (and (and (and (and (= x_204 1) ?v_42) ?v_40) ?v_41) ?v_43) ?v_44) (= x_208 x_207)) (= x_407 2)) (= x_198 x_207)) (= x_16 (store x_15 x_207 3)))) (and (and (and (and (and (and (and (and (and (= x_204 2) ?v_42) (= x_200 (+ x_187 1))) ?v_41) ?v_43) ?v_44) (= x_210 x_209)) (= x_408 3)) (or (not (<= x_190 12)) (= x_198 x_209))) (= x_16 (store x_15 x_209 1)))) (and (and (and (and (and (= x_204 3) ?v_43) ?v_40) ?v_41) (= x_16 x_15)) ?v_44))) (= x_190 (+ x_177 1))) (= x_409 (select x_14 x_192))) (= x_410 (select x_14 x_194))) (= x_411 (select x_14 x_196))) (or (or (or (and (and (and (and (and (and (and (= x_191 0) (= x_189 (+ x_176 1))) ?v_45) ?v_46) (= x_193 x_192)) (= x_409 1)) (= x_15 (store x_14 x_192 2))) (= x_186 (store x_173 x_176 x_192))) (and (and (and (and (and (and (and (and (and (= x_191 1) ?v_47) ?v_45) ?v_46) ?v_48) ?v_49) (= x_195 x_194)) (= x_410 2)) (= x_185 x_194)) (= x_15 (store x_14 x_194 3)))) (and (and (and (and (and (and (and (and (and (= x_191 2) ?v_47) (= x_187 (+ x_174 1))) ?v_46) ?v_48) ?v_49) (= x_197 x_196)) (= x_411 3)) (or (not (<= x_177 12)) (= x_185 x_196))) (= x_15 (store x_14 x_196 1)))) (and (and (and (and (and (= x_191 3) ?v_48) ?v_45) ?v_46) (= x_15 x_14)) ?v_49))) (= x_177 (+ x_164 1))) (= x_412 (select x_13 x_179))) (= x_413 (select x_13 x_181))) (= x_414 (select x_13 x_183))) (or (or (or (and (and (and (and (and (and (and (= x_178 0) (= x_176 (+ x_163 1))) ?v_50) ?v_51) (= x_180 x_179)) (= x_412 1)) (= x_14 (store x_13 x_179 2))) (= x_173 (store x_160 x_163 x_179))) (and (and (and (and (and (and (and (and (and (= x_178 1) ?v_52) ?v_50) ?v_51) ?v_53) ?v_54) (= x_182 x_181)) (= x_413 2)) (= x_172 x_181)) (= x_14 (store x_13 x_181 3)))) (and (and (and (and (and (and (and (and (and (= x_178 2) ?v_52) (= x_174 (+ x_161 1))) ?v_51) ?v_53) ?v_54) (= x_184 x_183)) (= x_414 3)) (or (not (<= x_164 12)) (= x_172 x_183))) (= x_14 (store x_13 x_183 1)))) (and (and (and (and (and (= x_178 3) ?v_53) ?v_50) ?v_51) (= x_14 x_13)) ?v_54))) (= x_164 (+ x_151 1))) (= x_415 (select x_12 x_166))) (= x_416 (select x_12 x_168))) (= x_417 (select x_12 x_170))) (or (or (or (and (and (and (and (and (and (and (= x_165 0) (= x_163 (+ x_150 1))) ?v_55) ?v_56) (= x_167 x_166)) (= x_415 1)) (= x_13 (store x_12 x_166 2))) (= x_160 (store x_147 x_150 x_166))) (and (and (and (and (and (and (and (and (and (= x_165 1) ?v_57) ?v_55) ?v_56) ?v_58) ?v_59) (= x_169 x_168)) (= x_416 2)) (= x_159 x_168)) (= x_13 (store x_12 x_168 3)))) (and (and (and (and (and (and (and (and (and (= x_165 2) ?v_57) (= x_161 (+ x_148 1))) ?v_56) ?v_58) ?v_59) (= x_171 x_170)) (= x_417 3)) (or (not (<= x_151 12)) (= x_159 x_170))) (= x_13 (store x_12 x_170 1)))) (and (and (and (and (and (= x_165 3) ?v_58) ?v_55) ?v_56) (= x_13 x_12)) ?v_59))) (= x_151 (+ x_138 1))) (= x_418 (select x_11 x_153))) (= x_419 (select x_11 x_155))) (= x_420 (select x_11 x_157))) (or (or (or (and (and (and (and (and (and (and (= x_152 0) (= x_150 (+ x_137 1))) ?v_60) ?v_61) (= x_154 x_153)) (= x_418 1)) (= x_12 (store x_11 x_153 2))) (= x_147 (store x_134 x_137 x_153))) (and (and (and (and (and (and (and (and (and (= x_152 1) ?v_62) ?v_60) ?v_61) ?v_63) ?v_64) (= x_156 x_155)) (= x_419 2)) (= x_146 x_155)) (= x_12 (store x_11 x_155 3)))) (and (and (and (and (and (and (and (and (and (= x_152 2) ?v_62) (= x_148 (+ x_135 1))) ?v_61) ?v_63) ?v_64) (= x_158 x_157)) (= x_420 3)) (or (not (<= x_138 12)) (= x_146 x_157))) (= x_12 (store x_11 x_157 1)))) (and (and (and (and (and (= x_152 3) ?v_63) ?v_60) ?v_61) (= x_12 x_11)) ?v_64))) (= x_138 (+ x_125 1))) (= x_421 (select x_10 x_140))) (= x_422 (select x_10 x_142))) (= x_423 (select x_10 x_144))) (or (or (or (and (and (and (and (and (and (and (= x_139 0) (= x_137 (+ x_124 1))) ?v_65) ?v_66) (= x_141 x_140)) (= x_421 1)) (= x_11 (store x_10 x_140 2))) (= x_134 (store x_121 x_124 x_140))) (and (and (and (and (and (and (and (and (and (= x_139 1) ?v_67) ?v_65) ?v_66) ?v_68) ?v_69) (= x_143 x_142)) (= x_422 2)) (= x_133 x_142)) (= x_11 (store x_10 x_142 3)))) (and (and (and (and (and (and (and (and (and (= x_139 2) ?v_67) (= x_135 (+ x_122 1))) ?v_66) ?v_68) ?v_69) (= x_145 x_144)) (= x_423 3)) (or (not (<= x_125 12)) (= x_133 x_144))) (= x_11 (store x_10 x_144 1)))) (and (and (and (and (and (= x_139 3) ?v_68) ?v_65) ?v_66) (= x_11 x_10)) ?v_69))) (= x_125 (+ x_112 1))) (= x_424 (select x_9 x_127))) (= x_425 (select x_9 x_129))) (= x_426 (select x_9 x_131))) (or (or (or (and (and (and (and (and (and (and (= x_126 0) (= x_124 (+ x_111 1))) ?v_70) ?v_71) (= x_128 x_127)) (= x_424 1)) (= x_10 (store x_9 x_127 2))) (= x_121 (store x_108 x_111 x_127))) (and (and (and (and (and (and (and (and (and (= x_126 1) ?v_72) ?v_70) ?v_71) ?v_73) ?v_74) (= x_130 x_129)) (= x_425 2)) (= x_120 x_129)) (= x_10 (store x_9 x_129 3)))) (and (and (and (and (and (and (and (and (and (= x_126 2) ?v_72) (= x_122 (+ x_109 1))) ?v_71) ?v_73) ?v_74) (= x_132 x_131)) (= x_426 3)) (or (not (<= x_112 12)) (= x_120 x_131))) (= x_10 (store x_9 x_131 1)))) (and (and (and (and (and (= x_126 3) ?v_73) ?v_70) ?v_71) (= x_10 x_9)) ?v_74))) (= x_112 (+ x_99 1))) (= x_427 (select x_8 x_114))) (= x_428 (select x_8 x_116))) (= x_429 (select x_8 x_118))) (or (or (or (and (and (and (and (and (and (and (= x_113 0) (= x_111 (+ x_98 1))) ?v_75) ?v_76) (= x_115 x_114)) (= x_427 1)) (= x_9 (store x_8 x_114 2))) (= x_108 (store x_95 x_98 x_114))) (and (and (and (and (and (and (and (and (and (= x_113 1) ?v_77) ?v_75) ?v_76) ?v_78) ?v_79) (= x_117 x_116)) (= x_428 2)) (= x_107 x_116)) (= x_9 (store x_8 x_116 3)))) (and (and (and (and (and (and (and (and (and (= x_113 2) ?v_77) (= x_109 (+ x_96 1))) ?v_76) ?v_78) ?v_79) (= x_119 x_118)) (= x_429 3)) (or (not (<= x_99 12)) (= x_107 x_118))) (= x_9 (store x_8 x_118 1)))) (and (and (and (and (and (= x_113 3) ?v_78) ?v_75) ?v_76) (= x_9 x_8)) ?v_79))) (= x_99 (+ x_86 1))) (= x_430 (select x_7 x_101))) (= x_431 (select x_7 x_103))) (= x_432 (select x_7 x_105))) (or (or (or (and (and (and (and (and (and (and (= x_100 0) (= x_98 (+ x_85 1))) ?v_80) ?v_81) (= x_102 x_101)) (= x_430 1)) (= x_8 (store x_7 x_101 2))) (= x_95 (store x_82 x_85 x_101))) (and (and (and (and (and (and (and (and (and (= x_100 1) ?v_82) ?v_80) ?v_81) ?v_83) ?v_84) (= x_104 x_103)) (= x_431 2)) (= x_94 x_103)) (= x_8 (store x_7 x_103 3)))) (and (and (and (and (and (and (and (and (and (= x_100 2) ?v_82) (= x_96 (+ x_83 1))) ?v_81) ?v_83) ?v_84) (= x_106 x_105)) (= x_432 3)) (or (not (<= x_86 12)) (= x_94 x_105))) (= x_8 (store x_7 x_105 1)))) (and (and (and (and (and (= x_100 3) ?v_83) ?v_80) ?v_81) (= x_8 x_7)) ?v_84))) (= x_86 (+ x_73 1))) (= x_433 (select x_6 x_88))) (= x_434 (select x_6 x_90))) (= x_435 (select x_6 x_92))) (or (or (or (and (and (and (and (and (and (and (= x_87 0) (= x_85 (+ x_72 1))) ?v_85) ?v_86) (= x_89 x_88)) (= x_433 1)) (= x_7 (store x_6 x_88 2))) (= x_82 (store x_69 x_72 x_88))) (and (and (and (and (and (and (and (and (and (= x_87 1) ?v_87) ?v_85) ?v_86) ?v_88) ?v_89) (= x_91 x_90)) (= x_434 2)) (= x_81 x_90)) (= x_7 (store x_6 x_90 3)))) (and (and (and (and (and (and (and (and (and (= x_87 2) ?v_87) (= x_83 (+ x_70 1))) ?v_86) ?v_88) ?v_89) (= x_93 x_92)) (= x_435 3)) (or (not (<= x_73 12)) (= x_81 x_92))) (= x_7 (store x_6 x_92 1)))) (and (and (and (and (and (= x_87 3) ?v_88) ?v_85) ?v_86) (= x_7 x_6)) ?v_89))) (= x_73 (+ x_60 1))) (= x_436 (select x_5 x_75))) (= x_437 (select x_5 x_77))) (= x_438 (select x_5 x_79))) (or (or (or (and (and (and (and (and (and (and (= x_74 0) (= x_72 (+ x_59 1))) ?v_90) ?v_91) (= x_76 x_75)) (= x_436 1)) (= x_6 (store x_5 x_75 2))) (= x_69 (store x_56 x_59 x_75))) (and (and (and (and (and (and (and (and (and (= x_74 1) ?v_92) ?v_90) ?v_91) ?v_93) ?v_94) (= x_78 x_77)) (= x_437 2)) (= x_68 x_77)) (= x_6 (store x_5 x_77 3)))) (and (and (and (and (and (and (and (and (and (= x_74 2) ?v_92) (= x_70 (+ x_57 1))) ?v_91) ?v_93) ?v_94) (= x_80 x_79)) (= x_438 3)) (or (not (<= x_60 12)) (= x_68 x_79))) (= x_6 (store x_5 x_79 1)))) (and (and (and (and (and (= x_74 3) ?v_93) ?v_90) ?v_91) (= x_6 x_5)) ?v_94))) (= x_60 (+ x_47 1))) (= x_439 (select x_4 x_62))) (= x_440 (select x_4 x_64))) (= x_441 (select x_4 x_66))) (or (or (or (and (and (and (and (and (and (and (= x_61 0) (= x_59 (+ x_46 1))) ?v_95) ?v_96) (= x_63 x_62)) (= x_439 1)) (= x_5 (store x_4 x_62 2))) (= x_56 (store x_43 x_46 x_62))) (and (and (and (and (and (and (and (and (and (= x_61 1) ?v_97) ?v_95) ?v_96) ?v_98) ?v_99) (= x_65 x_64)) (= x_440 2)) (= x_55 x_64)) (= x_5 (store x_4 x_64 3)))) (and (and (and (and (and (and (and (and (and (= x_61 2) ?v_97) (= x_57 (+ x_44 1))) ?v_96) ?v_98) ?v_99) (= x_67 x_66)) (= x_441 3)) (or (not (<= x_47 12)) (= x_55 x_66))) (= x_5 (store x_4 x_66 1)))) (and (and (and (and (and (= x_61 3) ?v_98) ?v_95) ?v_96) (= x_5 x_4)) ?v_99))) (= x_47 (+ x_33 1))) (= x_442 (select x_3 x_49))) (= x_443 (select x_3 x_51))) (= x_444 (select x_3 x_53))) (or (or (or (and (and (and (and (and (and (and (= x_48 0) (= x_46 (+ x_31 1))) ?v_100) ?v_101) (= x_50 x_49)) (= x_442 1)) (= x_4 (store x_3 x_49 2))) (= x_43 (store x_27 x_31 x_49))) (and (and (and (and (and (and (and (and (and (= x_48 1) ?v_102) ?v_100) ?v_101) ?v_103) ?v_104) (= x_52 x_51)) (= x_443 2)) (= x_42 x_51)) (= x_4 (store x_3 x_51 3)))) (and (and (and (and (and (and (and (and (and (= x_48 2) ?v_102) (= x_44 (+ x_28 1))) ?v_101) ?v_103) ?v_104) (= x_54 x_53)) (= x_444 3)) (or (not (<= x_33 12)) (= x_42 x_53))) (= x_4 (store x_3 x_53 1)))) (and (and (and (and (and (= x_48 3) ?v_103) ?v_100) ?v_101) (= x_4 x_3)) ?v_104))) (= x_33 (+ x_34 1))) (= x_445 (select x_0 x_36))) (= x_446 (select x_0 x_38))) (= x_447 (select x_0 x_40))) (or (or (or (and (and (and (and (and (and (and (= x_35 0) (= x_31 (+ x_32 1))) ?v_105) ?v_106) (= x_37 x_36)) (= x_445 1)) (= x_3 (store x_0 x_36 2))) (= x_27 (store x_24 x_32 x_36))) (and (and (and (and (and (and (and (and (and (= x_35 1) ?v_107) ?v_105) ?v_106) ?v_108) ?v_109) (= x_39 x_38)) (= x_446 2)) (= x_26 x_38)) (= x_3 (store x_0 x_38 3)))) (and (and (and (and (and (and (and (and (and (= x_35 2) ?v_107) (= x_28 (+ x_25 1))) ?v_106) ?v_108) ?v_109) (= x_41 x_40)) (= x_447 3)) (or (not (<= x_34 12)) (= x_26 x_40))) (= x_3 (store x_0 x_40 1)))) (and (and (and (and (and (= x_35 3) ?v_108) ?v_105) ?v_106) (= x_3 x_0)) ?v_109))) (= x_448 (select x_311 x_1))) (= x_448 3)) (= x_449 (select x_311 x_2))) (= x_449 3))))
; --- Injected Array Sum Constraint ---
(assert (sum x_199 (+ x_217 (+ x_291 x_196))))
(check-sat)
(exit)